db/data/1643126219140252107449731858149999037.z3.out
-------------------
2500.107590495
